(set-logic QF_UF)
(declare-fun A0 () Bool)
(declare-fun A1 () Bool)
(declare-fun A2 () Bool)
(declare-fun A3 () Bool)
(declare-fun A4 () Bool)
(declare-fun A5 () Bool)
(declare-fun A6 () Bool)
(declare-fun A7 () Bool)
(declare-fun A8 () Bool)
(declare-fun A9 () Bool)
(declare-fun A10 () Bool)
(declare-fun A11 () Bool)
(declare-fun A12 () Bool)
(declare-fun A13 () Bool)
(declare-fun A14 () Bool)
(declare-fun A15 () Bool)
(declare-fun A16 () Bool)
(declare-fun A17 () Bool)
(declare-fun A18 () Bool)
(declare-fun A19 () Bool)
(declare-fun A20 () Bool)
(declare-fun A21 () Bool)
(declare-fun A22 () Bool)
(declare-fun A23 () Bool)
(declare-fun A24 () Bool)
(assert (let ((.def_0 (not A24))) (let ((.def_1 (or A8 .def_0))) (let ((.def_2 (and A23 A8))) (let ((.def_3 (or .def_2 .def_1))) (let ((.def_4 (not .def_3))) (let ((.def_5 (not A7))) (let ((.def_6 (and A15 .def_5))) (let ((.def_7 (not A3))) (let ((.def_8 (and .def_7 A16))) (let ((.def_9 (or .def_8 .def_6))) (let ((.def_10 (= .def_9 .def_4))) (let ((.def_11 (not .def_10))) (let ((.def_12 (not A4))) (let ((.def_13 (not A19))) (let ((.def_14 (or .def_13 .def_12))) (let ((.def_15 (or .def_13 .def_0))) (let ((.def_16 (not .def_15))) (let ((.def_17 (and .def_16 .def_14))) (let ((.def_18 (not .def_17))) (let ((.def_19 (not A1))) (let ((.def_20 (or .def_19 A9))) (let ((.def_21 (not A21))) (let ((.def_22 (not A6))) (let ((.def_23 (and .def_22 .def_21))) (let ((.def_24 (and .def_23 .def_20))) (let ((.def_25 (and .def_24 .def_18))) (let ((.def_26 (not .def_25))) (let ((.def_27 (and .def_26 .def_11))) (let ((.def_28 (not A22))) (let ((.def_29 (or A19 .def_28))) (let ((.def_30 (= A3 A23))) (let ((.def_31 (not .def_30))) (let ((.def_32 (and .def_31 .def_29))) (let ((.def_33 (not .def_32))) (let ((.def_34 (and A10 A13))) (let ((.def_35 (not A18))) (let ((.def_36 (and .def_13 .def_35))) (let ((.def_37 (not .def_36))) (let ((.def_38 (or .def_37 .def_34))) (let ((.def_39 (not .def_38))) (let ((.def_40 (= .def_39 .def_33))) (let ((.def_41 (not A12))) (let ((.def_42 (not A17))) (let ((.def_43 (or .def_42 .def_41))) (let ((.def_44 (not .def_43))) (let ((.def_45 (or A16 .def_41))) (let ((.def_46 (not .def_45))) (let ((.def_47 (and .def_46 .def_44))) (let ((.def_48 (not .def_47))) (let ((.def_49 (and A2 A6))) (let ((.def_50 (not A9))) (let ((.def_51 (and .def_0 .def_50))) (let ((.def_52 (not .def_51))) (let ((.def_53 (and .def_52 .def_49))) (let ((.def_54 (or .def_53 .def_48))) (let ((.def_55 (not .def_54))) (let ((.def_56 (or .def_55 .def_40))) (let ((.def_57 (and .def_56 .def_27))) (let ((.def_58 (= .def_19 A18))) (let ((.def_59 (not .def_58))) (let ((.def_60 (not A16))) (let ((.def_61 (and A11 .def_60))) (let ((.def_62 (or .def_61 .def_59))) (let ((.def_63 (not .def_62))) (let ((.def_64 (or .def_5 A5))) (let ((.def_65 (not A8))) (let ((.def_66 (and .def_12 .def_65))) (let ((.def_67 (not .def_66))) (let ((.def_68 (or .def_67 .def_64))) (let ((.def_69 (and .def_68 .def_63))) (let ((.def_70 (= .def_5 A12))) (let ((.def_71 (not .def_70))) (let ((.def_72 (not A2))) (let ((.def_73 (and .def_72 A12))) (let ((.def_74 (or .def_73 .def_71))) (let ((.def_75 (and .def_13 A22))) (let ((.def_76 (not .def_75))) (let ((.def_77 (or A13 A23))) (let ((.def_78 (or .def_77 .def_76))) (let ((.def_79 (and .def_78 .def_74))) (let ((.def_80 (and .def_79 .def_69))) (let ((.def_81 (not A23))) (let ((.def_82 (and A16 .def_81))) (let ((.def_83 (and A9 A0))) (let ((.def_84 (and .def_83 .def_82))) (let ((.def_85 (or A7 A6))) (let ((.def_86 (or .def_13 A2))) (let ((.def_87 (and .def_86 .def_85))) (let ((.def_88 (and .def_87 .def_84))) (let ((.def_89 (not A5))) (let ((.def_90 (or .def_89 .def_50))) (let ((.def_91 (not .def_90))) (let ((.def_92 (not A13))) (let ((.def_93 (or .def_92 A2))) (let ((.def_94 (not .def_93))) (let ((.def_95 (and .def_94 .def_91))) (let ((.def_96 (not .def_95))) (let ((.def_97 (not A11))) (let ((.def_98 (or .def_97 A1))) (let ((.def_99 (not .def_98))) (let ((.def_100 (or .def_41 A0))) (let ((.def_101 (not .def_100))) (let ((.def_102 (and .def_101 .def_99))) (let ((.def_103 (not .def_102))) (let ((.def_104 (= .def_103 .def_96))) (let ((.def_105 (not .def_104))) (let ((.def_106 (or .def_105 .def_88))) (let ((.def_107 (not .def_106))) (let ((.def_108 (and .def_107 .def_80))) (let ((.def_109 (not .def_108))) (let ((.def_110 (or .def_109 .def_57))) (let ((.def_111 (not .def_110))) (let ((.def_112 (or A5 A10))) (let ((.def_113 (not A10))) (let ((.def_114 (and A0 .def_113))) (let ((.def_115 (not .def_114))) (let ((.def_116 (= .def_115 .def_112))) (let ((.def_117 (not .def_116))) (let ((.def_118 (and A11 .def_28))) (let ((.def_119 (and .def_41 A10))) (let ((.def_120 (or .def_119 .def_118))) (let ((.def_121 (and .def_120 .def_117))) (let ((.def_122 (and A4 A8))) (let ((.def_123 (not .def_122))) (let ((.def_124 (or .def_22 A11))) (let ((.def_125 (and .def_124 .def_123))) (let ((.def_126 (not A20))) (let ((.def_127 (and .def_126 A20))) (let ((.def_128 (or A17 A4))) (let ((.def_129 (and .def_128 .def_127))) (let ((.def_130 (not .def_129))) (let ((.def_131 (or .def_130 .def_125))) (let ((.def_132 (not .def_131))) (let ((.def_133 (or .def_132 .def_121))) (let ((.def_134 (and .def_60 A20))) (let ((.def_135 (not .def_134))) (let ((.def_136 (and .def_113 A7))) (let ((.def_137 (and .def_136 .def_135))) (let ((.def_138 (not .def_137))) (let ((.def_139 (or A2 .def_42))) (let ((.def_140 (= A17 .def_113))) (let ((.def_141 (and .def_140 .def_139))) (let ((.def_142 (not .def_141))) (let ((.def_143 (or .def_142 .def_138))) (let ((.def_144 (not .def_143))) (let ((.def_145 (and .def_41 A7))) (let ((.def_146 (not .def_145))) (let ((.def_147 (= .def_60 A6))) (let ((.def_148 (not .def_147))) (let ((.def_149 (or .def_148 .def_146))) (let ((.def_150 (not .def_149))) (let ((.def_151 (and A8 A6))) (let ((.def_152 (and .def_41 A12))) (let ((.def_153 (not .def_152))) (let ((.def_154 (= .def_153 .def_151))) (let ((.def_155 (not .def_154))) (let ((.def_156 (and .def_155 .def_150))) (let ((.def_157 (not .def_156))) (let ((.def_158 (and .def_157 .def_144))) (let ((.def_159 (or .def_158 .def_133))) (let ((.def_160 (not .def_159))) (let ((.def_161 (not A14))) (let ((.def_162 (or A17 .def_161))) (let ((.def_163 (not .def_162))) (let ((.def_164 (or A24 .def_65))) (let ((.def_165 (not .def_164))) (let ((.def_166 (or .def_165 .def_163))) (let ((.def_167 (not .def_166))) (let ((.def_168 (and .def_89 A5))) (let ((.def_169 (or A10 A15))) (let ((.def_170 (not .def_169))) (let ((.def_171 (and .def_170 .def_168))) (let ((.def_172 (or .def_171 .def_167))) (let ((.def_173 (and .def_65 A22))) (let ((.def_174 (not .def_173))) (let ((.def_175 (= A14 A9))) (let ((.def_176 (not .def_175))) (let ((.def_177 (and .def_176 .def_174))) (let ((.def_178 (and .def_89 A22))) (let ((.def_179 (not .def_178))) (let ((.def_180 (or A2 .def_12))) (let ((.def_181 (or .def_180 .def_179))) (let ((.def_182 (= .def_181 .def_177))) (let ((.def_183 (not .def_182))) (let ((.def_184 (or .def_183 .def_172))) (let ((.def_185 (not .def_184))) (let ((.def_186 (and .def_72 A7))) (let ((.def_187 (or .def_81 .def_161))) (let ((.def_188 (or .def_187 .def_186))) (let ((.def_189 (not .def_188))) (let ((.def_190 (and A22 A23))) (let ((.def_191 (not .def_190))) (let ((.def_192 (and .def_13 .def_22))) (let ((.def_193 (not .def_192))) (let ((.def_194 (and .def_193 .def_191))) (let ((.def_195 (not .def_194))) (let ((.def_196 (and .def_195 .def_189))) (let ((.def_197 (not .def_196))) (let ((.def_198 (or .def_21 A14))) (let ((.def_199 (not .def_198))) (let ((.def_200 (or A6 A9))) (let ((.def_201 (or .def_200 .def_199))) (let ((.def_202 (and A20 .def_65))) (let ((.def_203 (not .def_202))) (let ((.def_204 (and .def_22 A3))) (let ((.def_205 (and .def_204 .def_203))) (let ((.def_206 (or .def_205 .def_201))) (let ((.def_207 (or .def_206 .def_197))) (let ((.def_208 (not .def_207))) (let ((.def_209 (or .def_208 .def_185))) (let ((.def_210 (not .def_209))) (let ((.def_211 (and .def_210 .def_160))) (let ((.def_212 (not .def_211))) (let ((.def_213 (and .def_212 .def_111))) (let ((.def_214 (not .def_213))) (let ((.def_215 (and A4 .def_161))) (let ((.def_216 (or A24 .def_89))) (let ((.def_217 (and .def_216 .def_215))) (let ((.def_218 (= A22 .def_65))) (let ((.def_219 (not .def_218))) (let ((.def_220 (or .def_219 .def_186))) (let ((.def_221 (not .def_220))) (let ((.def_222 (and .def_221 .def_217))) (let ((.def_223 (and .def_113 A19))) (let ((.def_224 (and .def_115 .def_223))) (let ((.def_225 (not .def_224))) (let ((.def_226 (and A19 A12))) (let ((.def_227 (not .def_226))) (let ((.def_228 (or A21 .def_19))) (let ((.def_229 (= .def_228 .def_227))) (let ((.def_230 (or .def_229 .def_225))) (let ((.def_231 (and .def_230 .def_222))) (let ((.def_232 (not .def_231))) (let ((.def_233 (and A3 A12))) (let ((.def_234 (and A19 .def_65))) (let ((.def_235 (not .def_234))) (let ((.def_236 (or .def_235 .def_233))) (let ((.def_237 (or .def_22 .def_97))) (let ((.def_238 (not A0))) (let ((.def_239 (or .def_238 A4))) (let ((.def_240 (not .def_239))) (let ((.def_241 (and .def_240 .def_237))) (let ((.def_242 (not .def_241))) (let ((.def_243 (or .def_242 .def_236))) (let ((.def_244 (not .def_243))) (let ((.def_245 (= .def_89 A4))) (let ((.def_246 (and .def_12 .def_22))) (let ((.def_247 (and .def_246 .def_245))) (let ((.def_248 (not .def_247))) (let ((.def_249 (and .def_41 A9))) (let ((.def_250 (or .def_5 A9))) (let ((.def_251 (or .def_250 .def_249))) (let ((.def_252 (or .def_251 .def_248))) (let ((.def_253 (and .def_252 .def_244))) (let ((.def_254 (not .def_253))) (let ((.def_255 (and .def_254 .def_232))) (let ((.def_256 (not .def_255))) (let ((.def_257 (or .def_72 .def_126))) (let ((.def_258 (or .def_22 .def_65))) (let ((.def_259 (not .def_258))) (let ((.def_260 (or .def_259 .def_257))) (let ((.def_261 (= .def_238 .def_65))) (let ((.def_262 (or A16 A12))) (let ((.def_263 (not .def_262))) (let ((.def_264 (or .def_263 .def_261))) (let ((.def_265 (and .def_264 .def_260))) (let ((.def_266 (not .def_265))) (let ((.def_267 (and A6 .def_22))) (let ((.def_268 (or A3 A3))) (let ((.def_269 (not .def_268))) (let ((.def_270 (and .def_269 .def_267))) (let ((.def_271 (not .def_270))) (let ((.def_272 (and A13 A24))) (let ((.def_273 (and A2 .def_41))) (let ((.def_274 (or .def_273 .def_272))) (let ((.def_275 (not .def_274))) (let ((.def_276 (and .def_275 .def_271))) (let ((.def_277 (not .def_276))) (let ((.def_278 (and .def_277 .def_266))) (let ((.def_279 (not .def_278))) (let ((.def_280 (and A16 .def_19))) (let ((.def_281 (not .def_280))) (let ((.def_282 (and .def_65 A2))) (let ((.def_283 (= .def_282 .def_281))) (let ((.def_284 (not .def_283))) (let ((.def_285 (or A2 A11))) (let ((.def_286 (not .def_285))) (let ((.def_287 (and .def_50 .def_81))) (let ((.def_288 (not .def_287))) (let ((.def_289 (and .def_288 .def_286))) (let ((.def_290 (not .def_289))) (let ((.def_291 (or .def_290 .def_284))) (let ((.def_292 (or A22 A5))) (let ((.def_293 (not .def_292))) (let ((.def_294 (or A0 .def_35))) (let ((.def_295 (or .def_294 .def_293))) (let ((.def_296 (not .def_295))) (let ((.def_297 (and .def_113 A14))) (let ((.def_298 (or A8 A23))) (let ((.def_299 (and .def_298 .def_297))) (let ((.def_300 (and .def_299 .def_296))) (let ((.def_301 (not .def_300))) (let ((.def_302 (and .def_301 .def_291))) (let ((.def_303 (or .def_302 .def_279))) (let ((.def_304 (= .def_303 .def_256))) (let ((.def_305 (not .def_304))) (let ((.def_306 (or .def_7 .def_72))) (let ((.def_307 (not .def_306))) (let ((.def_308 (and .def_72 .def_97))) (let ((.def_309 (not .def_308))) (let ((.def_310 (and .def_309 .def_307))) (let ((.def_311 (not .def_310))) (let ((.def_312 (or A22 A18))) (let ((.def_313 (not .def_312))) (let ((.def_314 (= .def_42 .def_0))) (let ((.def_315 (not .def_314))) (let ((.def_316 (= .def_315 .def_313))) (let ((.def_317 (not .def_316))) (let ((.def_318 (or .def_317 .def_311))) (let ((.def_319 (and .def_65 .def_12))) (let ((.def_320 (and .def_81 .def_19))) (let ((.def_321 (and .def_320 .def_319))) (let ((.def_322 (not .def_321))) (let ((.def_323 (and A9 A19))) (let ((.def_324 (not .def_323))) (let ((.def_325 (and A15 A9))) (let ((.def_326 (and .def_325 .def_324))) (let ((.def_327 (not .def_326))) (let ((.def_328 (and .def_327 .def_322))) (let ((.def_329 (not .def_328))) (let ((.def_330 (and .def_329 .def_318))) (let ((.def_331 (not .def_330))) (let ((.def_332 (= A13 .def_238))) (let ((.def_333 (= A20 A18))) (let ((.def_334 (not .def_333))) (let ((.def_335 (and .def_334 .def_332))) (let ((.def_336 (not .def_335))) (let ((.def_337 (and A10 .def_0))) (let ((.def_338 (and .def_238 .def_113))) (let ((.def_339 (= .def_338 .def_337))) (let ((.def_340 (or .def_339 .def_336))) (let ((.def_341 (not .def_340))) (let ((.def_342 (= A8 A6))) (let ((.def_343 (not .def_342))) (let ((.def_344 (and .def_12 A16))) (let ((.def_345 (= .def_344 .def_343))) (let ((.def_346 (= A15 A0))) (let ((.def_347 (or A18 A17))) (let ((.def_348 (not .def_347))) (let ((.def_349 (or .def_348 .def_346))) (let ((.def_350 (not .def_349))) (let ((.def_351 (or .def_350 .def_345))) (let ((.def_352 (not .def_351))) (let ((.def_353 (or .def_352 .def_341))) (let ((.def_354 (not .def_353))) (let ((.def_355 (or .def_354 .def_331))) (let ((.def_356 (and A9 .def_13))) (let ((.def_357 (not .def_356))) (let ((.def_358 (or .def_65 .def_161))) (let ((.def_359 (not .def_358))) (let ((.def_360 (or .def_359 .def_357))) (let ((.def_361 (or A11 A16))) (let ((.def_362 (and .def_161 .def_5))) (let ((.def_363 (and .def_362 .def_361))) (let ((.def_364 (not .def_363))) (let ((.def_365 (and .def_364 .def_360))) (let ((.def_366 (not .def_365))) (let ((.def_367 (and A17 A7))) (let ((.def_368 (or .def_320 .def_367))) (let ((.def_369 (not .def_368))) (let ((.def_370 (and A3 A13))) (let ((.def_371 (not .def_370))) (let ((.def_372 (not A15))) (let ((.def_373 (or .def_13 .def_372))) (let ((.def_374 (not .def_373))) (let ((.def_375 (and .def_374 .def_371))) (let ((.def_376 (or .def_375 .def_369))) (let ((.def_377 (not .def_376))) (let ((.def_378 (or .def_377 .def_366))) (let ((.def_379 (not .def_378))) (let ((.def_380 (and .def_7 A19))) (let ((.def_381 (not .def_380))) (let ((.def_382 (and A5 A24))) (let ((.def_383 (not .def_382))) (let ((.def_384 (and .def_383 .def_381))) (let ((.def_385 (not .def_384))) (let ((.def_386 (and .def_42 A6))) (let ((.def_387 (and A14 .def_60))) (let ((.def_388 (not .def_387))) (let ((.def_389 (and .def_388 .def_386))) (let ((.def_390 (not .def_389))) (let ((.def_391 (or .def_390 .def_385))) (let ((.def_392 (not .def_391))) (let ((.def_393 (or .def_92 .def_5))) (let ((.def_394 (not .def_393))) (let ((.def_395 (or .def_126 .def_21))) (let ((.def_396 (or .def_395 .def_394))) (let ((.def_397 (and A8 .def_28))) (let ((.def_398 (not .def_397))) (let ((.def_399 (or .def_65 .def_7))) (let ((.def_400 (and .def_399 .def_398))) (let ((.def_401 (and .def_400 .def_396))) (let ((.def_402 (and .def_401 .def_392))) (let ((.def_403 (not .def_402))) (let ((.def_404 (or .def_403 .def_379))) (let ((.def_405 (and .def_404 .def_355))) (let ((.def_406 (not .def_405))) (let ((.def_407 (or .def_406 .def_305))) (let ((.def_408 (not .def_407))) (let ((.def_409 (or .def_408 .def_214))) .def_409)))))))))))))))))))))))))))))))))))))))))))))))))))))))))))))))))))))))))))))))))))))))))))))))))))))))))))))))))))))))))))))))))))))))))))))))))))))))))))))))))))))))))))))))))))))))))))))))))))))))))))))))))))))))))))))))))))))))))))))))))))))))))))))))))))))))))))))))))))))))))))))))))))))))))))))))))))))))))))))))))))))))))))))))))))))))))))))))))))))))))))))))))))))))))))))))))))))))))))))))))))))))))))
(check-sat)
